20	5
0	3	1	3	2
1	1	7
2	1	5
3	1	17
4	1	10
5	1	4
6	2	15	19
7	1	20
8	1	16
9	1	21
10	1	11
11	1	13
12	1	9
13	2	14	20
14	1	6
15	2	12	17
16	1	21
17	1	21
18	1	21
19	1	21
20	1	21
21	0
0	0	0	0	0	0	0
1	8	0	0	0	2	0
2	3	5	2	0	0	0
3	3	0	3	5	0	0
4	1	0	1	4	0	0
5	3	4	5	5	3	2
6	5	0	4	4	5	1
7	9	0	0	0	0	4
8	3	3	0	5	2	0
9	10	1	0	0	0	2
10	6	0	2	3	2	0
11	3	0	4	0	0	2
12	2	0	3	5	3	4
13	8	3	4	5	5	4
14	9	0	0	0	2	0
15	1	3	4	5	0	0
16	7	0	0	3	0	3
17	9	0	2	0	0	2
18	7	0	0	0	4	0
19	9	5	0	0	0	2
20	1	5	0	0	4	5
21	0	0	0	0	0	0
5	5	5	5	6
